NPROCS=0
This instance is clustered!
Gurobi Optimizer version 9.0.0 build v9.0.0rc2 (linux64)
Optimize a model with 28 rows, 197 columns and 392 nonzeros
Model fingerprint: 0x75b18cce
Variable types: 1 continuous, 196 integer (196 binary)
Coefficient statistics:
  Matrix range     [1e+00, 1e+00]
  Objective range  [1e+00, 2e+02]
  Bounds range     [1e+00, 1e+00]
  RHS range        [1e+00, 1e+00]
Presolve removed 2 rows and 39 columns
Presolve time: 0.00s
Presolved: 26 rows, 158 columns, 314 nonzeros
Variable types: 1 continuous, 157 integer (157 binary)

Root relaxation: objective 2.467229e+02, 24 iterations, 0.00 seconds
 done with super cut 0

    Nodes    |    Current Node    |     Objective Bounds      |     Work
 Expl Unexpl |  Obj  Depth IntInf | Incumbent    BestBd   Gap | It/Node Time

     0     0  331.01105    0   28          -  331.01105      -     -    0s
 done with super cut 1
 done with super cut 2
H    0     0                     379.1204242  331.01105  12.7%     -    0s
 done with super cut 3
     0     0  333.25117    0   23  379.12042  333.25117  12.1%     -    0s
     0     0  333.42089    0   23  379.12042  333.42089  12.1%     -    0s
 done with super cut 4
 done with super cut 5
 done with super cut 6
H    0     0                     370.3432432  333.42089  10.0%     -    1s
     0     0  333.42089    0   27  370.34324  333.42089  10.0%     -    1s
     0     0  333.54005    0   25  370.34324  333.54005  9.94%     -    1s
     0     0  333.57834    0   25  370.34324  333.57834  9.93%     -    1s
     0     0  333.58877    0   25  370.34324  333.58877  9.92%     -    1s
     0     0  334.27748    0   26  370.34324  334.27748  9.74%     -    1s
     0     0  334.62278    0   32  370.34324  334.62278  9.65%     -    1s
     0     0  335.33346    0   24  370.34324  335.33346  9.45%     -    1s
     0     0  335.44174    0   24  370.34324  335.44174  9.42%     -    1s
     0     0  335.44204    0   24  370.34324  335.44204  9.42%     -    1s
     0     0  336.57591    0   35  370.34324  336.57591  9.12%     -    1s
 done with super cut 7
H    0     0                     368.8133990  336.57591  8.74%     -    2s
     0     0  336.94212    0   39  368.81340  336.94212  8.64%     -    2s
     0     0  336.98360    0   40  368.81340  336.98360  8.63%     -    2s
     0     0  337.06027    0   35  368.81340  337.06027  8.61%     -    2s
     0     0  337.06027    0   35  368.81340  337.06027  8.61%     -    2s
 done with super cut 8
 done with super cut 9
 done with super cut 10
     0     2  339.84170    0   35  368.81340  339.84170  7.86%     -    3s

Cutting planes:
  Gomory: 2
  MIR: 6
  Zero half: 6
  RLT: 1
  Lazy constraints: 21

Explored 134 nodes (951 simplex iterations) in 3.44 seconds
Thread count was 12 (of 12 available processors)

Solution count 3: 368.813 370.343 379.12 

Optimal solution found (tolerance 1.00e-04)
Best objective 3.688133990244e+02, best bound 3.688133990244e+02, gap 0.0000%

User-callback calls 488, time in user-callback 3.35 sec
/projects/academic/josewalt/caigao/RRARP_BD/BendersDecomp/ret/model_outs/n_12_e_6_algo_4.out
 =====>>>>> Solution is written to file in <../ret/model_outs> !!!
===>> All Done!
